data/lp_files/q3/68_1.lp
\ Model foo
\ LP format - for model browsing. Use MPS format to capture full model detail.
Minimize
  z
Subject To
 allocateEach[1]: x[1,1] + x[2,1] + x[3,1] + x[4,1] = 1
 allocateEach[2]: x[1,2] + x[2,2] + x[3,2] + x[4,2] = 1
 allocateEach[3]: x[1,3] + x[2,3] + x[3,3] + x[4,3] = 1
 allocateEach[4]: x[1,4] + x[2,4] + x[3,4] + x[4,4] = 1
 allocateEach[5]: x[1,5] + x[2,5] + x[3,5] + x[4,5] = 1
 allocateEach[6]: x[1,6] + x[2,6] + x[3,6] + x[4,6] = 1
 allocateEach[7]: x[1,7] + x[2,7] + x[3,7] + x[4,7] = 1
 allocateEach[8]: x[1,8] + x[2,8] + x[3,8] + x[4,8] = 1
 allocateAllCash: cashProportion[1] + cashProportion[2] + cashProportion[3]
   + cashProportion[4] = 1
 findWorstP[1,2]: z + 0.0275133439718263 cashProportion[1]
   - 0.0275133439718263 cashProportion[2] + 0.1281021295328234 x[1,1]
   + 0.0893908545644638 x[1,2] + 0.2454190282286909 x[1,3]
   + 0.1979860232212623 x[1,4] + 0.0246244428547846 x[1,5]
   + 0.0384361415286414 x[1,6] + 0.1858526385296869 x[1,7]
   + 0.0626753975678204 x[1,8] - 0.1281021295328234 x[2,1]
   - 0.0893908545644638 x[2,2] - 0.2454190282286909 x[2,3]
   - 0.1979860232212623 x[2,4] - 0.0246244428547846 x[2,5]
   - 0.0384361415286414 x[2,6] - 0.1858526385296869 x[2,7]
   - 0.0626753975678204 x[2,8] >= 0
 findWorstP[1,3]: z + 0.0275133439718263 cashProportion[1]
   - 0.0275133439718263 cashProportion[3] + 0.1281021295328234 x[1,1]
   + 0.0893908545644638 x[1,2] + 0.2454190282286909 x[1,3]
   + 0.1979860232212623 x[1,4] + 0.0246244428547846 x[1,5]
   + 0.0384361415286414 x[1,6] + 0.1858526385296869 x[1,7]
   + 0.0626753975678204 x[1,8] - 0.1281021295328234 x[3,1]
   - 0.0893908545644638 x[3,2] - 0.2454190282286909 x[3,3]
   - 0.1979860232212623 x[3,4] - 0.0246244428547846 x[3,5]
   - 0.0384361415286414 x[3,6] - 0.1858526385296869 x[3,7]
   - 0.0626753975678204 x[3,8] >= 0
 findWorstP[1,4]: z + 0.0275133439718263 cashProportion[1]
   - 0.0275133439718263 cashProportion[4] + 0.1281021295328234 x[1,1]
   + 0.0893908545644638 x[1,2] + 0.2454190282286909 x[1,3]
   + 0.1979860232212623 x[1,4] + 0.0246244428547846 x[1,5]
   + 0.0384361415286414 x[1,6] + 0.1858526385296869 x[1,7]
   + 0.0626753975678204 x[1,8] - 0.1281021295328234 x[4,1]
   - 0.0893908545644638 x[4,2] - 0.2454190282286909 x[4,3]
   - 0.1979860232212623 x[4,4] - 0.0246244428547846 x[4,5]
   - 0.0384361415286414 x[4,6] - 0.1858526385296869 x[4,7]
   - 0.0626753975678204 x[4,8] >= 0
 findWorstP[2,1]: z - 0.023071776296057 cashProportion[1]
   + 0.023071776296057 cashProportion[2] - 0.2246037422421153 x[1,1]
   - 0.1936644902291028 x[1,2] - 0.079297695129548 x[1,3]
   - 0.1014235285974667 x[1,4] - 0.0557183397549777 x[1,5]
   - 0.0587868860023533 x[1,6] - 0.1052534434626122 x[1,7]
   - 0.1581800982857671 x[1,8] + 0.2246037422421153 x[2,1]
   + 0.1936644902291028 x[2,2] + 0.079297695129548 x[2,3]
   + 0.1014235285974667 x[2,4] + 0.0557183397549777 x[2,5]
   + 0.0587868860023533 x[2,6] + 0.1052534434626122 x[2,7]
   + 0.1581800982857671 x[2,8] >= 0
 findWorstP[2,3]: z + 0.023071776296057 cashProportion[2]
   - 0.023071776296057 cashProportion[3] + 0.2246037422421153 x[2,1]
   + 0.1936644902291028 x[2,2] + 0.079297695129548 x[2,3]
   + 0.1014235285974667 x[2,4] + 0.0557183397549777 x[2,5]
   + 0.0587868860023533 x[2,6] + 0.1052534434626122 x[2,7]
   + 0.1581800982857671 x[2,8] - 0.2246037422421153 x[3,1]
   - 0.1936644902291028 x[3,2] - 0.079297695129548 x[3,3]
   - 0.1014235285974667 x[3,4] - 0.0557183397549777 x[3,5]
   - 0.0587868860023533 x[3,6] - 0.1052534434626122 x[3,7]
   - 0.1581800982857671 x[3,8] >= 0
 findWorstP[2,4]: z + 0.023071776296057 cashProportion[2]
   - 0.023071776296057 cashProportion[4] + 0.2246037422421153 x[2,1]
   + 0.1936644902291028 x[2,2] + 0.079297695129548 x[2,3]
   + 0.1014235285974667 x[2,4] + 0.0557183397549777 x[2,5]
   + 0.0587868860023533 x[2,6] + 0.1052534434626122 x[2,7]
   + 0.1581800982857671 x[2,8] - 0.2246037422421153 x[4,1]
   - 0.1936644902291028 x[4,2] - 0.079297695129548 x[4,3]
   - 0.1014235285974667 x[4,4] - 0.0557183397549777 x[4,5]
   - 0.0587868860023533 x[4,6] - 0.1052534434626122 x[4,7]
   - 0.1581800982857671 x[4,8] >= 0
 findWorstP[3,1]: z - 0.025775188803258 cashProportion[1]
   + 0.025775188803258 cashProportion[3] - 0.2032889140912957 x[1,1]
   - 0.2404309611567905 x[1,2] - 0.0187385622599686 x[1,3]
   - 0.1393406706704127 x[1,4] - 0.0462664639018481 x[1,5]
   - 0.0144341057298245 x[1,6] - 0.2480346418537516 x[1,7]
   - 0.0636904915328505 x[1,8] + 0.2032889140912957 x[3,1]
   + 0.2404309611567905 x[3,2] + 0.0187385622599686 x[3,3]
   + 0.1393406706704127 x[3,4] + 0.0462664639018481 x[3,5]
   + 0.0144341057298245 x[3,6] + 0.2480346418537516 x[3,7]
   + 0.0636904915328505 x[3,8] >= 0
 findWorstP[3,2]: z - 0.025775188803258 cashProportion[2]
   + 0.025775188803258 cashProportion[3] - 0.2032889140912957 x[2,1]
   - 0.2404309611567905 x[2,2] - 0.0187385622599686 x[2,3]
   - 0.1393406706704127 x[2,4] - 0.0462664639018481 x[2,5]
   - 0.0144341057298245 x[2,6] - 0.2480346418537516 x[2,7]
   - 0.0636904915328505 x[2,8] + 0.2032889140912957 x[3,1]
   + 0.2404309611567905 x[3,2] + 0.0187385622599686 x[3,3]
   + 0.1393406706704127 x[3,4] + 0.0462664639018481 x[3,5]
   + 0.0144341057298245 x[3,6] + 0.2480346418537516 x[3,7]
   + 0.0636904915328505 x[3,8] >= 0
 findWorstP[3,4]: z + 0.025775188803258 cashProportion[3]
   - 0.025775188803258 cashProportion[4] + 0.2032889140912957 x[3,1]
   + 0.2404309611567905 x[3,2] + 0.0187385622599686 x[3,3]
   + 0.1393406706704127 x[3,4] + 0.0462664639018481 x[3,5]
   + 0.0144341057298245 x[3,6] + 0.2480346418537516 x[3,7]
   + 0.0636904915328505 x[3,8] - 0.2032889140912957 x[4,1]
   - 0.2404309611567905 x[4,2] - 0.0187385622599686 x[4,3]
   - 0.1393406706704127 x[4,4] - 0.0462664639018481 x[4,5]
   - 0.0144341057298245 x[4,6] - 0.2480346418537516 x[4,7]
   - 0.0636904915328505 x[4,8] >= 0
 findWorstP[4,1]: z - 0.02920134326179 cashProportion[1]
   + 0.02920134326179 cashProportion[4] - 0.1758796904657614 x[1,1]
   - 0.2149510877500365 x[1,2] - 0.0530588407066725 x[1,3]
   - 0.00189808731201635 x[1,4] - 0.0366768871368083 x[1,5]
   - 0.1920572346327931 x[1,6] - 0.0220178128193897 x[1,7]
   - 0.2742590159147321 x[1,8] + 0.1758796904657614 x[4,1]
   + 0.2149510877500365 x[4,2] + 0.0530588407066725 x[4,3]
   + 0.00189808731201635 x[4,4] + 0.0366768871368083 x[4,5]
   + 0.1920572346327931 x[4,6] + 0.0220178128193897 x[4,7]
   + 0.2742590159147321 x[4,8] >= 0
 findWorstP[4,2]: z - 0.02920134326179 cashProportion[2]
   + 0.02920134326179 cashProportion[4] - 0.1758796904657614 x[2,1]
   - 0.2149510877500365 x[2,2] - 0.0530588407066725 x[2,3]
   - 0.00189808731201635 x[2,4] - 0.0366768871368083 x[2,5]
   - 0.1920572346327931 x[2,6] - 0.0220178128193897 x[2,7]
   - 0.2742590159147321 x[2,8] + 0.1758796904657614 x[4,1]
   + 0.2149510877500365 x[4,2] + 0.0530588407066725 x[4,3]
   + 0.00189808731201635 x[4,4] + 0.0366768871368083 x[4,5]
   + 0.1920572346327931 x[4,6] + 0.0220178128193897 x[4,7]
   + 0.2742590159147321 x[4,8] >= 0
 findWorstP[4,3]: z - 0.02920134326179 cashProportion[3]
   + 0.02920134326179 cashProportion[4] - 0.1758796904657614 x[3,1]
   - 0.2149510877500365 x[3,2] - 0.0530588407066725 x[3,3]
   - 0.00189808731201635 x[3,4] - 0.0366768871368083 x[3,5]
   - 0.1920572346327931 x[3,6] - 0.0220178128193897 x[3,7]
   - 0.2742590159147321 x[3,8] + 0.1758796904657614 x[4,1]
   + 0.2149510877500365 x[4,2] + 0.0530588407066725 x[4,3]
   + 0.00189808731201635 x[4,4] + 0.0366768871368083 x[4,5]
   + 0.1920572346327931 x[4,6] + 0.0220178128193897 x[4,7]
   + 0.2742590159147321 x[4,8] >= 0
Bounds
 z <= 1
 -infinity <= cashProportion[1] <= 1
 -infinity <= cashProportion[2] <= 1
 -infinity <= cashProportion[3] <= 1
 -infinity <= cashProportion[4] <= 1
Binaries
 x[1,1] x[1,2] x[1,3] x[1,4] x[1,5] x[1,6] x[1,7] x[1,8] x[2,1] x[2,2]
 x[2,3] x[2,4] x[2,5] x[2,6] x[2,7] x[2,8] x[3,1] x[3,2] x[3,3] x[3,4]
 x[3,5] x[3,6] x[3,7] x[3,8] x[4,1] x[4,2] x[4,3] x[4,4] x[4,5] x[4,6]
 x[4,7] x[4,8]
End
