data/mps_files/pEFS/68_1.mps
NAME foo
ROWS
 N  OBJ
 E  allocateEach[1]
 E  allocateEach[2]
 E  allocateEach[3]
 E  allocateEach[4]
 E  allocateEach[5]
 E  allocateEach[6]
 E  allocateEach[7]
 E  allocateEach[8]
 E  allocateAllCash
 G  findWorstP[1,2]
 G  findWorstP[1,3]
 G  findWorstP[1,4]
 G  findWorstP[2,1]
 G  findWorstP[2,3]
 G  findWorstP[2,4]
 G  findWorstP[3,1]
 G  findWorstP[3,2]
 G  findWorstP[3,4]
 G  findWorstP[4,1]
 G  findWorstP[4,2]
 G  findWorstP[4,3]
COLUMNS
    z         OBJ       1
    z         findWorstP[1,2]  1
    z         findWorstP[1,3]  1
    z         findWorstP[1,4]  1
    z         findWorstP[2,1]  1
    z         findWorstP[2,3]  1
    z         findWorstP[2,4]  1
    z         findWorstP[3,1]  1
    z         findWorstP[3,2]  1
    z         findWorstP[3,4]  1
    z         findWorstP[4,1]  1
    z         findWorstP[4,2]  1
    z         findWorstP[4,3]  1
    cashProportion[1]  allocateAllCash  1
    cashProportion[1]  findWorstP[1,2]  2.7513343971826334e-02
    cashProportion[1]  findWorstP[1,3]  2.7513343971826334e-02
    cashProportion[1]  findWorstP[1,4]  2.7513343971826334e-02
    cashProportion[1]  findWorstP[2,1]  -2.3071776296057042e-02
    cashProportion[1]  findWorstP[3,1]  -2.5775188803257989e-02
    cashProportion[1]  findWorstP[4,1]  -2.9201343261790042e-02
    cashProportion[2]  allocateAllCash  1
    cashProportion[2]  findWorstP[1,2]  -2.7513343971826334e-02
    cashProportion[2]  findWorstP[2,1]  2.3071776296057042e-02
    cashProportion[2]  findWorstP[2,3]  2.3071776296057042e-02
    cashProportion[2]  findWorstP[2,4]  2.3071776296057042e-02
    cashProportion[2]  findWorstP[3,2]  -2.5775188803257989e-02
    cashProportion[2]  findWorstP[4,2]  -2.9201343261790042e-02
    cashProportion[3]  allocateAllCash  1
    cashProportion[3]  findWorstP[1,3]  -2.7513343971826334e-02
    cashProportion[3]  findWorstP[2,3]  -2.3071776296057042e-02
    cashProportion[3]  findWorstP[3,1]  2.5775188803257989e-02
    cashProportion[3]  findWorstP[3,2]  2.5775188803257989e-02
    cashProportion[3]  findWorstP[3,4]  2.5775188803257989e-02
    cashProportion[3]  findWorstP[4,3]  -2.9201343261790042e-02
    cashProportion[4]  allocateAllCash  1
    cashProportion[4]  findWorstP[1,4]  -2.7513343971826334e-02
    cashProportion[4]  findWorstP[2,4]  -2.3071776296057042e-02
    cashProportion[4]  findWorstP[3,4]  -2.5775188803257989e-02
    cashProportion[4]  findWorstP[4,1]  2.9201343261790042e-02
    cashProportion[4]  findWorstP[4,2]  2.9201343261790042e-02
    cashProportion[4]  findWorstP[4,3]  2.9201343261790042e-02
    MARKER    'MARKER'                 'INTORG'
    x[1,1]    allocateEach[1]  1
    x[1,1]    findWorstP[1,2]  1.2810212953282341e-01
    x[1,1]    findWorstP[1,3]  1.2810212953282341e-01
    x[1,1]    findWorstP[1,4]  1.2810212953282341e-01
    x[1,1]    findWorstP[2,1]  -2.2460374224211530e-01
    x[1,1]    findWorstP[3,1]  -2.0328891409129574e-01
    x[1,1]    findWorstP[4,1]  -1.7587969046576141e-01
    x[1,2]    allocateEach[2]  1
    x[1,2]    findWorstP[1,2]  8.9390854564463759e-02
    x[1,2]    findWorstP[1,3]  8.9390854564463759e-02
    x[1,2]    findWorstP[1,4]  8.9390854564463759e-02
    x[1,2]    findWorstP[2,1]  -1.9366449022910279e-01
    x[1,2]    findWorstP[3,1]  -2.4043096115679050e-01
    x[1,2]    findWorstP[4,1]  -2.1495108775003649e-01
    x[1,3]    allocateEach[3]  1
    x[1,3]    findWorstP[1,2]  2.4541902822869088e-01
    x[1,3]    findWorstP[1,3]  2.4541902822869088e-01
    x[1,3]    findWorstP[1,4]  2.4541902822869088e-01
    x[1,3]    findWorstP[2,1]  -7.9297695129548040e-02
    x[1,3]    findWorstP[3,1]  -1.8738562259968557e-02
    x[1,3]    findWorstP[4,1]  -5.3058840706672508e-02
    x[1,4]    allocateEach[4]  1
    x[1,4]    findWorstP[1,2]  1.9798602322126230e-01
    x[1,4]    findWorstP[1,3]  1.9798602322126230e-01
    x[1,4]    findWorstP[1,4]  1.9798602322126230e-01
    x[1,4]    findWorstP[2,1]  -1.0142352859746674e-01
    x[1,4]    findWorstP[3,1]  -1.3934067067041267e-01
    x[1,4]    findWorstP[4,1]  -1.8980873120163525e-03
    x[1,5]    allocateEach[5]  1
    x[1,5]    findWorstP[1,2]  2.4624442854784566e-02
    x[1,5]    findWorstP[1,3]  2.4624442854784566e-02
    x[1,5]    findWorstP[1,4]  2.4624442854784566e-02
    x[1,5]    findWorstP[2,1]  -5.5718339754977746e-02
    x[1,5]    findWorstP[3,1]  -4.6266463901848083e-02
    x[1,5]    findWorstP[4,1]  -3.6676887136808292e-02
    x[1,6]    allocateEach[6]  1
    x[1,6]    findWorstP[1,2]  3.8436141528641381e-02
    x[1,6]    findWorstP[1,3]  3.8436141528641381e-02
    x[1,6]    findWorstP[1,4]  3.8436141528641381e-02
    x[1,6]    findWorstP[2,1]  -5.8786886002353343e-02
    x[1,6]    findWorstP[3,1]  -1.4434105729824473e-02
    x[1,6]    findWorstP[4,1]  -1.9205723463279309e-01
    x[1,7]    allocateEach[7]  1
    x[1,7]    findWorstP[1,2]  1.8585263852968686e-01
    x[1,7]    findWorstP[1,3]  1.8585263852968686e-01
    x[1,7]    findWorstP[1,4]  1.8585263852968686e-01
    x[1,7]    findWorstP[2,1]  -1.0525344346261221e-01
    x[1,7]    findWorstP[3,1]  -2.4803464185375163e-01
    x[1,7]    findWorstP[4,1]  -2.2017812819389689e-02
    x[1,8]    allocateEach[8]  1
    x[1,8]    findWorstP[1,2]  6.2675397567820382e-02
    x[1,8]    findWorstP[1,3]  6.2675397567820382e-02
    x[1,8]    findWorstP[1,4]  6.2675397567820382e-02
    x[1,8]    findWorstP[2,1]  -1.5818009828576707e-01
    x[1,8]    findWorstP[3,1]  -6.3690491532850488e-02
    x[1,8]    findWorstP[4,1]  -2.7425901591473206e-01
    x[2,1]    allocateEach[1]  1
    x[2,1]    findWorstP[1,2]  -1.2810212953282341e-01
    x[2,1]    findWorstP[2,1]  2.2460374224211530e-01
    x[2,1]    findWorstP[2,3]  2.2460374224211530e-01
    x[2,1]    findWorstP[2,4]  2.2460374224211530e-01
    x[2,1]    findWorstP[3,2]  -2.0328891409129574e-01
    x[2,1]    findWorstP[4,2]  -1.7587969046576141e-01
    x[2,2]    allocateEach[2]  1
    x[2,2]    findWorstP[1,2]  -8.9390854564463759e-02
    x[2,2]    findWorstP[2,1]  1.9366449022910279e-01
    x[2,2]    findWorstP[2,3]  1.9366449022910279e-01
    x[2,2]    findWorstP[2,4]  1.9366449022910279e-01
    x[2,2]    findWorstP[3,2]  -2.4043096115679050e-01
    x[2,2]    findWorstP[4,2]  -2.1495108775003649e-01
    x[2,3]    allocateEach[3]  1
    x[2,3]    findWorstP[1,2]  -2.4541902822869088e-01
    x[2,3]    findWorstP[2,1]  7.9297695129548040e-02
    x[2,3]    findWorstP[2,3]  7.9297695129548040e-02
    x[2,3]    findWorstP[2,4]  7.9297695129548040e-02
    x[2,3]    findWorstP[3,2]  -1.8738562259968557e-02
    x[2,3]    findWorstP[4,2]  -5.3058840706672508e-02
    x[2,4]    allocateEach[4]  1
    x[2,4]    findWorstP[1,2]  -1.9798602322126230e-01
    x[2,4]    findWorstP[2,1]  1.0142352859746674e-01
    x[2,4]    findWorstP[2,3]  1.0142352859746674e-01
    x[2,4]    findWorstP[2,4]  1.0142352859746674e-01
    x[2,4]    findWorstP[3,2]  -1.3934067067041267e-01
    x[2,4]    findWorstP[4,2]  -1.8980873120163525e-03
    x[2,5]    allocateEach[5]  1
    x[2,5]    findWorstP[1,2]  -2.4624442854784566e-02
    x[2,5]    findWorstP[2,1]  5.5718339754977746e-02
    x[2,5]    findWorstP[2,3]  5.5718339754977746e-02
    x[2,5]    findWorstP[2,4]  5.5718339754977746e-02
    x[2,5]    findWorstP[3,2]  -4.6266463901848083e-02
    x[2,5]    findWorstP[4,2]  -3.6676887136808292e-02
    x[2,6]    allocateEach[6]  1
    x[2,6]    findWorstP[1,2]  -3.8436141528641381e-02
    x[2,6]    findWorstP[2,1]  5.8786886002353343e-02
    x[2,6]    findWorstP[2,3]  5.8786886002353343e-02
    x[2,6]    findWorstP[2,4]  5.8786886002353343e-02
    x[2,6]    findWorstP[3,2]  -1.4434105729824473e-02
    x[2,6]    findWorstP[4,2]  -1.9205723463279309e-01
    x[2,7]    allocateEach[7]  1
    x[2,7]    findWorstP[1,2]  -1.8585263852968686e-01
    x[2,7]    findWorstP[2,1]  1.0525344346261221e-01
    x[2,7]    findWorstP[2,3]  1.0525344346261221e-01
    x[2,7]    findWorstP[2,4]  1.0525344346261221e-01
    x[2,7]    findWorstP[3,2]  -2.4803464185375163e-01
    x[2,7]    findWorstP[4,2]  -2.2017812819389689e-02
    x[2,8]    allocateEach[8]  1
    x[2,8]    findWorstP[1,2]  -6.2675397567820382e-02
    x[2,8]    findWorstP[2,1]  1.5818009828576707e-01
    x[2,8]    findWorstP[2,3]  1.5818009828576707e-01
    x[2,8]    findWorstP[2,4]  1.5818009828576707e-01
    x[2,8]    findWorstP[3,2]  -6.3690491532850488e-02
    x[2,8]    findWorstP[4,2]  -2.7425901591473206e-01
    x[3,1]    allocateEach[1]  1
    x[3,1]    findWorstP[1,3]  -1.2810212953282341e-01
    x[3,1]    findWorstP[2,3]  -2.2460374224211530e-01
    x[3,1]    findWorstP[3,1]  2.0328891409129574e-01
    x[3,1]    findWorstP[3,2]  2.0328891409129574e-01
    x[3,1]    findWorstP[3,4]  2.0328891409129574e-01
    x[3,1]    findWorstP[4,3]  -1.7587969046576141e-01
    x[3,2]    allocateEach[2]  1
    x[3,2]    findWorstP[1,3]  -8.9390854564463759e-02
    x[3,2]    findWorstP[2,3]  -1.9366449022910279e-01
    x[3,2]    findWorstP[3,1]  2.4043096115679050e-01
    x[3,2]    findWorstP[3,2]  2.4043096115679050e-01
    x[3,2]    findWorstP[3,4]  2.4043096115679050e-01
    x[3,2]    findWorstP[4,3]  -2.1495108775003649e-01
    x[3,3]    allocateEach[3]  1
    x[3,3]    findWorstP[1,3]  -2.4541902822869088e-01
    x[3,3]    findWorstP[2,3]  -7.9297695129548040e-02
    x[3,3]    findWorstP[3,1]  1.8738562259968557e-02
    x[3,3]    findWorstP[3,2]  1.8738562259968557e-02
    x[3,3]    findWorstP[3,4]  1.8738562259968557e-02
    x[3,3]    findWorstP[4,3]  -5.3058840706672508e-02
    x[3,4]    allocateEach[4]  1
    x[3,4]    findWorstP[1,3]  -1.9798602322126230e-01
    x[3,4]    findWorstP[2,3]  -1.0142352859746674e-01
    x[3,4]    findWorstP[3,1]  1.3934067067041267e-01
    x[3,4]    findWorstP[3,2]  1.3934067067041267e-01
    x[3,4]    findWorstP[3,4]  1.3934067067041267e-01
    x[3,4]    findWorstP[4,3]  -1.8980873120163525e-03
    x[3,5]    allocateEach[5]  1
    x[3,5]    findWorstP[1,3]  -2.4624442854784566e-02
    x[3,5]    findWorstP[2,3]  -5.5718339754977746e-02
    x[3,5]    findWorstP[3,1]  4.6266463901848083e-02
    x[3,5]    findWorstP[3,2]  4.6266463901848083e-02
    x[3,5]    findWorstP[3,4]  4.6266463901848083e-02
    x[3,5]    findWorstP[4,3]  -3.6676887136808292e-02
    x[3,6]    allocateEach[6]  1
    x[3,6]    findWorstP[1,3]  -3.8436141528641381e-02
    x[3,6]    findWorstP[2,3]  -5.8786886002353343e-02
    x[3,6]    findWorstP[3,1]  1.4434105729824473e-02
    x[3,6]    findWorstP[3,2]  1.4434105729824473e-02
    x[3,6]    findWorstP[3,4]  1.4434105729824473e-02
    x[3,6]    findWorstP[4,3]  -1.9205723463279309e-01
    x[3,7]    allocateEach[7]  1
    x[3,7]    findWorstP[1,3]  -1.8585263852968686e-01
    x[3,7]    findWorstP[2,3]  -1.0525344346261221e-01
    x[3,7]    findWorstP[3,1]  2.4803464185375163e-01
    x[3,7]    findWorstP[3,2]  2.4803464185375163e-01
    x[3,7]    findWorstP[3,4]  2.4803464185375163e-01
    x[3,7]    findWorstP[4,3]  -2.2017812819389689e-02
    x[3,8]    allocateEach[8]  1
    x[3,8]    findWorstP[1,3]  -6.2675397567820382e-02
    x[3,8]    findWorstP[2,3]  -1.5818009828576707e-01
    x[3,8]    findWorstP[3,1]  6.3690491532850488e-02
    x[3,8]    findWorstP[3,2]  6.3690491532850488e-02
    x[3,8]    findWorstP[3,4]  6.3690491532850488e-02
    x[3,8]    findWorstP[4,3]  -2.7425901591473206e-01
    x[4,1]    allocateEach[1]  1
    x[4,1]    findWorstP[1,4]  -1.2810212953282341e-01
    x[4,1]    findWorstP[2,4]  -2.2460374224211530e-01
    x[4,1]    findWorstP[3,4]  -2.0328891409129574e-01
    x[4,1]    findWorstP[4,1]  1.7587969046576141e-01
    x[4,1]    findWorstP[4,2]  1.7587969046576141e-01
    x[4,1]    findWorstP[4,3]  1.7587969046576141e-01
    x[4,2]    allocateEach[2]  1
    x[4,2]    findWorstP[1,4]  -8.9390854564463759e-02
    x[4,2]    findWorstP[2,4]  -1.9366449022910279e-01
    x[4,2]    findWorstP[3,4]  -2.4043096115679050e-01
    x[4,2]    findWorstP[4,1]  2.1495108775003649e-01
    x[4,2]    findWorstP[4,2]  2.1495108775003649e-01
    x[4,2]    findWorstP[4,3]  2.1495108775003649e-01
    x[4,3]    allocateEach[3]  1
    x[4,3]    findWorstP[1,4]  -2.4541902822869088e-01
    x[4,3]    findWorstP[2,4]  -7.9297695129548040e-02
    x[4,3]    findWorstP[3,4]  -1.8738562259968557e-02
    x[4,3]    findWorstP[4,1]  5.3058840706672508e-02
    x[4,3]    findWorstP[4,2]  5.3058840706672508e-02
    x[4,3]    findWorstP[4,3]  5.3058840706672508e-02
    x[4,4]    allocateEach[4]  1
    x[4,4]    findWorstP[1,4]  -1.9798602322126230e-01
    x[4,4]    findWorstP[2,4]  -1.0142352859746674e-01
    x[4,4]    findWorstP[3,4]  -1.3934067067041267e-01
    x[4,4]    findWorstP[4,1]  1.8980873120163525e-03
    x[4,4]    findWorstP[4,2]  1.8980873120163525e-03
    x[4,4]    findWorstP[4,3]  1.8980873120163525e-03
    x[4,5]    allocateEach[5]  1
    x[4,5]    findWorstP[1,4]  -2.4624442854784566e-02
    x[4,5]    findWorstP[2,4]  -5.5718339754977746e-02
    x[4,5]    findWorstP[3,4]  -4.6266463901848083e-02
    x[4,5]    findWorstP[4,1]  3.6676887136808292e-02
    x[4,5]    findWorstP[4,2]  3.6676887136808292e-02
    x[4,5]    findWorstP[4,3]  3.6676887136808292e-02
    x[4,6]    allocateEach[6]  1
    x[4,6]    findWorstP[1,4]  -3.8436141528641381e-02
    x[4,6]    findWorstP[2,4]  -5.8786886002353343e-02
    x[4,6]    findWorstP[3,4]  -1.4434105729824473e-02
    x[4,6]    findWorstP[4,1]  1.9205723463279309e-01
    x[4,6]    findWorstP[4,2]  1.9205723463279309e-01
    x[4,6]    findWorstP[4,3]  1.9205723463279309e-01
    x[4,7]    allocateEach[7]  1
    x[4,7]    findWorstP[1,4]  -1.8585263852968686e-01
    x[4,7]    findWorstP[2,4]  -1.0525344346261221e-01
    x[4,7]    findWorstP[3,4]  -2.4803464185375163e-01
    x[4,7]    findWorstP[4,1]  2.2017812819389689e-02
    x[4,7]    findWorstP[4,2]  2.2017812819389689e-02
    x[4,7]    findWorstP[4,3]  2.2017812819389689e-02
    x[4,8]    allocateEach[8]  1
    x[4,8]    findWorstP[1,4]  -6.2675397567820382e-02
    x[4,8]    findWorstP[2,4]  -1.5818009828576707e-01
    x[4,8]    findWorstP[3,4]  -6.3690491532850488e-02
    x[4,8]    findWorstP[4,1]  2.7425901591473206e-01
    x[4,8]    findWorstP[4,2]  2.7425901591473206e-01
    x[4,8]    findWorstP[4,3]  2.7425901591473206e-01
    MARKER    'MARKER'                 'INTEND'
RHS
    RHS1      allocateEach[1]  1
    RHS1      allocateEach[2]  1
    RHS1      allocateEach[3]  1
    RHS1      allocateEach[4]  1
    RHS1      allocateEach[5]  1
    RHS1      allocateEach[6]  1
    RHS1      allocateEach[7]  1
    RHS1      allocateEach[8]  1
    RHS1      allocateAllCash  1
BOUNDS
 UP BND1      z         1
 MI BND1      cashProportion[1]
 UP BND1      cashProportion[1]  1
 MI BND1      cashProportion[2]
 UP BND1      cashProportion[2]  1
 MI BND1      cashProportion[3]
 UP BND1      cashProportion[3]  1
 MI BND1      cashProportion[4]
 UP BND1      cashProportion[4]  1
 BV BND1      x[1,1]  
 BV BND1      x[1,2]  
 BV BND1      x[1,3]  
 BV BND1      x[1,4]  
 BV BND1      x[1,5]  
 BV BND1      x[1,6]  
 BV BND1      x[1,7]  
 BV BND1      x[1,8]  
 BV BND1      x[2,1]  
 BV BND1      x[2,2]  
 BV BND1      x[2,3]  
 BV BND1      x[2,4]  
 BV BND1      x[2,5]  
 BV BND1      x[2,6]  
 BV BND1      x[2,7]  
 BV BND1      x[2,8]  
 BV BND1      x[3,1]  
 BV BND1      x[3,2]  
 BV BND1      x[3,3]  
 BV BND1      x[3,4]  
 BV BND1      x[3,5]  
 BV BND1      x[3,6]  
 BV BND1      x[3,7]  
 BV BND1      x[3,8]  
 BV BND1      x[4,1]  
 BV BND1      x[4,2]  
 BV BND1      x[4,3]  
 BV BND1      x[4,4]  
 BV BND1      x[4,5]  
 BV BND1      x[4,6]  
 BV BND1      x[4,7]  
 BV BND1      x[4,8]  
ENDATA
